benchmark/results/graph__10-1000-0.10-02_18/graph__10-1000-0.10-02_18_QuintonOs_Benders_aux.lp
\ This file has been generated by DOcplex
\ ENCODING=ISO-8859-1
\Problem name: Quinton Bounded Benders_auxiliary_sub

Minimize
 obj: 0.000875585886 pi_nr_a0 + 0.001934235977 pi_nr_a1
      + 0.001780962403 pi_nr_a2 + 0.001031619627 pi_nr_a3
      + 0.000977277589 pi_nr_a4 + 0.001035196687 pi_nr_a5
      + 0.000948766603 pi_nr_a6 + 0.000875656743 pi_nr_a7
      + 0.000919963201 pi_nr_a8 + 0.001258071360 pi_nr_a9 + pi_p_a1_a0
      + pi_p_a0_a2 + pi_p_a4_a3 + pi_p_a5_a2 + pi_p_a0_a8
      + 1020.490244848789 pi_d_a0_a1_proc_0
      + 1038.415872381316 pi_d_a1_a0_proc_0 + 366.689219091236 pi_d_a0_a2_proc_1
      + 2230.648192015191 pi_d_a0_a2_proc_0 + 362.351807984809 pi_d_a2_a0_proc_1
      + 2226.310780908764 pi_d_a2_a0_proc_0 + 629.532563596658 pi_d_a0_a3_proc_1
      + 1957.488668777562 pi_d_a0_a3_proc_0 + 635.511331222438 pi_d_a3_a0_proc_1
      + 1963.467436403342 pi_d_a3_a0_proc_0
      + 1564.716218762859 pi_d_a0_a4_proc_1
      + 1039.481711608205 pi_d_a0_a4_proc_0
      + 1553.518288391795 pi_d_a4_a0_proc_1
      + 1028.283781237141 pi_d_a4_a0_proc_0 + 267.655339258995 pi_d_a0_a5_proc_1
      + 267.438543510900 pi_d_a5_a0_proc_1 + 270.313543510900 pi_d_a0_a6_proc_1
      + 264.780339258995 pi_d_a6_a0_proc_1 + 1029.084422602656 pi_d_a0_a7_proc_0
      + 1029.821694627449 pi_d_a7_a0_proc_0
      + 1572.780339258995 pi_d_a0_a8_proc_1
      + 1038.686456489100 pi_d_a0_a8_proc_0
      + 1554.313543510900 pi_d_a8_a0_proc_1
      + 1020.219660741005 pi_d_a8_a0_proc_0 + 939.867781763231 pi_d_a0_a9_proc_1
      + 1669.935654502096 pi_d_a0_a9_proc_0 + 923.064345497904 pi_d_a9_a0_proc_1
      + 1653.132218236769 pi_d_a9_a0_proc_0
      + 1192.965579614607 pi_d_a1_a2_proc_0
      + 1206.087276079243 pi_d_a2_a1_proc_0 + 938.107876321547 pi_d_a1_a3_proc_0
      + 924.942111629252 pi_d_a3_a1_proc_0 + 15.649184332342 pi_d_a1_a4_proc_0
      - 5.789808717102 pi_d_a4_a1_proc_0 + 10.754177894331 pi_d_a1_a7_proc_0
      - 9.754177894331 pi_d_a7_a1_proc_0 + 2.000000000000 pi_d_a1_a8_proc_0
      - 1.000000000000 pi_d_a8_a1_proc_0 + 627.741614320917 pi_d_a1_a9_proc_0
      + 637.420141187842 pi_d_a9_a1_proc_0 + 458.298301365593 pi_d_a2_a3_proc_1
      + 2126.401145010242 pi_d_a2_a3_proc_0 + 466.598854989758 pi_d_a3_a2_proc_1
      + 2134.701698634407 pi_d_a3_a2_proc_0
      + 1400.234016481065 pi_d_a2_a4_proc_1
      + 1215.146247790155 pi_d_a2_a4_proc_0
      + 1377.853752209845 pi_d_a4_a2_proc_1
      + 1192.765983518935 pi_d_a4_a2_proc_0 + 97.871475598937 pi_d_a2_a5_proc_1
      + 97.075668707213 pi_d_a5_a2_proc_1 + 97.871475598937 pi_d_a2_a6_proc_1
      + 97.075668707213 pi_d_a6_a2_proc_1 + 1198.786754269690 pi_d_a2_a7_proc_0
      + 1200.266101424160 pi_d_a7_a2_proc_0
      + 1404.150493994368 pi_d_a2_a8_proc_1
      + 1210.203349688218 pi_d_a2_a8_proc_0
      + 1382.796650311782 pi_d_a8_a2_proc_1
      + 1188.849506005632 pi_d_a8_a2_proc_0 + 768.080739327942 pi_d_a2_a9_proc_1
      + 1838.295350530551 pi_d_a2_a9_proc_0 + 754.704649469449 pi_d_a9_a2_proc_1
      + 1824.919260672058 pi_d_a9_a2_proc_0
      + 1654.973563934137 pi_d_a3_a4_proc_1 + 933.882927500177 pi_d_a3_a4_proc_0
      + 1659.117072499823 pi_d_a4_a3_proc_1 + 938.026436065863 pi_d_a4_a3_proc_0
      + 369.072787711538 pi_d_a3_a5_proc_1 + 361.877224337663 pi_d_a5_a3_proc_1
      + 362.595608893553 pi_d_a3_a6_proc_1 + 368.354403155648 pi_d_a6_a3_proc_1
      + 942.742764113825 pi_d_a3_a7_proc_0 + 920.307223836974 pi_d_a7_a3_proc_0
      + 1670.157437046064 pi_d_a3_a8_proc_1 + 940.207424996863 pi_d_a3_a8_proc_0
      + 1652.792575003137 pi_d_a8_a3_proc_1 + 922.842562953936 pi_d_a8_a3_proc_0
      + 1038.356130205784 pi_d_a3_a9_proc_1
      + 1572.567873665342 pi_d_a3_a9_proc_0
      + 1020.432126334658 pi_d_a9_a3_proc_1
      + 1554.643869794216 pi_d_a9_a3_proc_0
      + 1294.950973186873 pi_d_a4_a5_proc_1
      + 1289.189651197886 pi_d_a5_a4_proc_1
      + 1288.398852394933 pi_d_a4_a6_proc_1
      + 1295.741771989826 pi_d_a6_a4_proc_1 + 4.169433896889 pi_d_a4_a7_proc_0
      + 5.689941718351 pi_d_a7_a4_proc_0 + 2578.392794456921 pi_d_a4_a8_proc_1
      - 4.747829927838 pi_d_a4_a8_proc_0 + 2597.747829927837 pi_d_a8_a4_proc_1
      + 14.607205543078 pi_d_a8_a4_proc_0 + 1947.419766018552 pi_d_a4_a9_proc_1
      + 628.440897142552 pi_d_a4_a9_proc_0 + 1964.559102857448 pi_d_a9_a4_proc_1
      + 645.580233981448 pi_d_a9_a4_proc_0 + pi_d_a5_a6_proc_1
      + 0.000000000000 pi_d_a6_a5_proc_1 + 1296.512634277312 pi_d_a5_a8_proc_1
      + 1296.487365722688 pi_d_a8_a5_proc_1 + 658.771722971007 pi_d_a5_a9_proc_1
      + 670.066521520233 pi_d_a9_a5_proc_1 + 1296.488418621942 pi_d_a6_a8_proc_1
      + 1296.511581378058 pi_d_a8_a6_proc_1 + 670.552834443740 pi_d_a6_a9_proc_1
      + 658.285410047500 pi_d_a9_a6_proc_1 - 8.751248155978 pi_d_a7_a8_proc_0
      + 9.751248155978 pi_d_a8_a7_proc_0 + 629.834650754573 pi_d_a7_a9_proc_0
      + 635.327104754187 pi_d_a9_a7_proc_0 + 1965.771722965568 pi_d_a8_a9_proc_1
      + 637.933478474328 pi_d_a8_a9_proc_0 + 1955.066521525672 pi_d_a9_a8_proc_1
      + 627.228277034432 pi_d_a9_a8_proc_0 + 0.206054738723 pi_y2_a0_proc_0
      + 0.793945261277 pi_y2_a0_proc_1 + pi_y2_a1_proc_0
      + 0.074825287155 pi_y2_a2_proc_0 + 0.925174712845 pi_y2_a2_proc_1
      + 0.281616516994 pi_y2_a3_proc_0 + 0.718383483006 pi_y2_a3_proc_1
      + 0.996582031013 pi_y2_a4_proc_0 + 0.003417968987 pi_y2_a4_proc_1
      + pi_y2_a5_proc_1 + pi_y2_a6_proc_1 + pi_y2_a7_proc_0 + pi_y2_a8_proc_0
      + 0.000000000000 pi_y2_a8_proc_1 + 0.512283273338 pi_y2_a9_proc_0
      + 0.487716726662 pi_y2_a9_proc_1
Subject To
 c1: 0.000898472597 pi_nr_a0 + 0.001934235977 pi_nr_a1 + 0.001831501832 pi_nr_a2
     + 0.001117318436 pi_nr_a3 + 0.000977517107 pi_nr_a4
     + 0.001035196687 pi_nr_a5 + 0.000948766603 pi_nr_a6
     + 0.000875656743 pi_nr_a7 + 0.000919963201 pi_nr_a8
     + 0.001351351351 pi_nr_a9 + pi_p_a1_a0 + pi_p_a0_a2 + pi_p_a4_a3
     + pi_p_a5_a2 + pi_p_a0_a8 + 1285 pi_d_a0_a1_proc_0 + 1308 pi_d_a1_a0_proc_0
     + pi_d_a0_a2_proc_1 + 2593 pi_d_a0_a2_proc_0 + 2592 pi_d_a2_a0_proc_0
     + 2592 pi_d_a0_a3_proc_0 + pi_d_a3_a0_proc_1 + 2593 pi_d_a3_a0_proc_0
     + 1308 pi_d_a0_a4_proc_1 + 1308 pi_d_a0_a4_proc_0 + 1285 pi_d_a4_a0_proc_1
     + 1285 pi_d_a4_a0_proc_0 + pi_d_a5_a0_proc_1 + pi_d_a0_a6_proc_1
     + 1285 pi_d_a0_a7_proc_0 + 1308 pi_d_a7_a0_proc_0 + 1308 pi_d_a0_a8_proc_1
     + 1308 pi_d_a0_a8_proc_0 + 1285 pi_d_a8_a0_proc_1 + 1285 pi_d_a8_a0_proc_0
     + 1308 pi_d_a0_a9_proc_1 + 1308 pi_d_a0_a9_proc_0 + 1285 pi_d_a9_a0_proc_1
     + 1285 pi_d_a9_a0_proc_0 + 1285 pi_d_a1_a2_proc_0 + 1308 pi_d_a2_a1_proc_0
     + 1308 pi_d_a1_a3_proc_0 + 1285 pi_d_a3_a1_proc_0 + 11 pi_d_a1_a4_proc_0
     - 10 pi_d_a4_a1_proc_0 + 11 pi_d_a1_a7_proc_0 - 10 pi_d_a7_a1_proc_0
     + 2 pi_d_a1_a8_proc_0 - pi_d_a8_a1_proc_0 + 2 pi_d_a1_a9_proc_0
     - pi_d_a9_a1_proc_0 + 2592 pi_d_a2_a3_proc_0 + pi_d_a3_a2_proc_1
     + 2593 pi_d_a3_a2_proc_0 + 1308 pi_d_a2_a4_proc_1 + 1308 pi_d_a2_a4_proc_0
     + 1285 pi_d_a4_a2_proc_1 + 1285 pi_d_a4_a2_proc_0 + pi_d_a5_a2_proc_1
     + pi_d_a6_a2_proc_1 + 1285 pi_d_a2_a7_proc_0 + 1308 pi_d_a7_a2_proc_0
     + 1308 pi_d_a2_a8_proc_1 + 1308 pi_d_a2_a8_proc_0 + 1285 pi_d_a8_a2_proc_1
     + 1285 pi_d_a8_a2_proc_0 + 1308 pi_d_a2_a9_proc_1 + 1308 pi_d_a2_a9_proc_0
     + 1285 pi_d_a9_a2_proc_1 + 1285 pi_d_a9_a2_proc_0 + 1285 pi_d_a3_a4_proc_1
     + 1285 pi_d_a3_a4_proc_0 + 1308 pi_d_a4_a3_proc_1 + 1308 pi_d_a4_a3_proc_0
     + pi_d_a3_a5_proc_1 + pi_d_a3_a6_proc_1 + 1308 pi_d_a3_a7_proc_0
     + 1285 pi_d_a7_a3_proc_0 + 1308 pi_d_a3_a8_proc_1 + 1308 pi_d_a3_a8_proc_0
     + 1285 pi_d_a8_a3_proc_1 + 1285 pi_d_a8_a3_proc_0 + 1308 pi_d_a3_a9_proc_1
     + 1308 pi_d_a3_a9_proc_0 + 1285 pi_d_a9_a3_proc_1 + 1285 pi_d_a9_a3_proc_0
     + 1308 pi_d_a4_a5_proc_1 + 1285 pi_d_a5_a4_proc_1 + 1285 pi_d_a4_a6_proc_1
     + 1308 pi_d_a6_a4_proc_1 + pi_d_a7_a4_proc_0 + 2583 pi_d_a4_a8_proc_1
     - 9 pi_d_a4_a8_proc_0 + 2602 pi_d_a8_a4_proc_1 + 10 pi_d_a8_a4_proc_0
     + 2583 pi_d_a4_a9_proc_1 - 9 pi_d_a4_a9_proc_0 + 2602 pi_d_a9_a4_proc_1
     + 10 pi_d_a9_a4_proc_0 + pi_d_a5_a6_proc_1 + 1308 pi_d_a5_a8_proc_1
     + 1285 pi_d_a8_a5_proc_1 + 1285 pi_d_a5_a9_proc_1 + 1308 pi_d_a9_a5_proc_1
     + 1285 pi_d_a6_a8_proc_1 + 1308 pi_d_a8_a6_proc_1 + 1308 pi_d_a6_a9_proc_1
     + 1285 pi_d_a9_a6_proc_1 - 9 pi_d_a7_a8_proc_0 + 10 pi_d_a8_a7_proc_0
     - 9 pi_d_a7_a9_proc_0 + 10 pi_d_a9_a7_proc_0 + 2592 pi_d_a8_a9_proc_1
     + 2593 pi_d_a9_a8_proc_1 + pi_d_a9_a8_proc_0 + pi_y2_a0_proc_1
     + pi_y2_a1_proc_0 + pi_y2_a2_proc_1 + pi_y2_a3_proc_1 + pi_y2_a4_proc_0
     + pi_y2_a5_proc_1 + pi_y2_a6_proc_1 + pi_y2_a7_proc_0 + pi_y2_a8_proc_0
     + pi_y2_a9_proc_0 = 0.000218627022
 c2: pi_nr_a0 + pi_nr_a1 + pi_nr_a2 + pi_nr_a3 + pi_nr_a4 + pi_nr_a5 + pi_nr_a6
     + pi_nr_a7 + pi_nr_a8 + pi_nr_a9 - pi_y1_a0 - pi_y1_a1 - pi_y1_a2
     - pi_y1_a3 - pi_y1_a4 - pi_y1_a5 - pi_y1_a6 - pi_y1_a7 - pi_y1_a8
     - pi_y1_a9 >= 1
 c3: - pi_p_a1_a0 + pi_p_a0_a2 + pi_p_a0_a8 - pi_p_a6_a0 + pi_d_a0_a1_proc_0
     - pi_d_a1_a0_proc_0 + pi_d_a0_a2_proc_1 + pi_d_a0_a2_proc_0
     - pi_d_a2_a0_proc_1 - pi_d_a2_a0_proc_0 + pi_d_a0_a3_proc_1
     + pi_d_a0_a3_proc_0 - pi_d_a3_a0_proc_1 - pi_d_a3_a0_proc_0
     + pi_d_a0_a4_proc_1 + pi_d_a0_a4_proc_0 - pi_d_a4_a0_proc_1
     - pi_d_a4_a0_proc_0 + pi_d_a0_a5_proc_1 - pi_d_a5_a0_proc_1
     + pi_d_a0_a6_proc_1 - pi_d_a6_a0_proc_1 + pi_d_a0_a7_proc_0
     - pi_d_a7_a0_proc_0 + pi_d_a0_a8_proc_1 + pi_d_a0_a8_proc_0
     - pi_d_a8_a0_proc_1 - pi_d_a8_a0_proc_0 + pi_d_a0_a9_proc_1
     + pi_d_a0_a9_proc_0 - pi_d_a9_a0_proc_1 - pi_d_a9_a0_proc_0 >= 0
 c4: 1270 pi_p_a0_a2 + 1270 pi_p_a0_a8 + 1270 pi_d_a0_a1_proc_0
     + 1270 pi_d_a0_a2_proc_0 + 1270 pi_d_a0_a3_proc_0 + 1270 pi_d_a0_a4_proc_0
     + 1270 pi_d_a0_a7_proc_0 + 1270 pi_d_a0_a8_proc_0 + 1270 pi_d_a0_a9_proc_0
     + pi_y1_a0 + pi_y2_a0_proc_0 >= 0
 c5: 1113 pi_p_a0_a2 + 1113 pi_p_a0_a8 + 1113 pi_d_a0_a2_proc_1
     + 1113 pi_d_a0_a3_proc_1 + 1113 pi_d_a0_a4_proc_1 + 1113 pi_d_a0_a5_proc_1
     + 1113 pi_d_a0_a6_proc_1 + 1113 pi_d_a0_a8_proc_1 + 1113 pi_d_a0_a9_proc_1
     + pi_y1_a0 + pi_y2_a0_proc_1 >= 0
 c6: pi_p_a1_a0 - pi_p_a3_a1 - pi_d_a0_a1_proc_0 + pi_d_a1_a0_proc_0
     + pi_d_a1_a2_proc_0 - pi_d_a2_a1_proc_0 + pi_d_a1_a3_proc_0
     - pi_d_a3_a1_proc_0 + pi_d_a1_a4_proc_0 - pi_d_a4_a1_proc_0
     + pi_d_a1_a7_proc_0 - pi_d_a7_a1_proc_0 + pi_d_a1_a8_proc_0
     - pi_d_a8_a1_proc_0 + pi_d_a1_a9_proc_0 - pi_d_a9_a1_proc_0 >= 0
 c7: 517 pi_p_a1_a0 + 517 pi_d_a1_a0_proc_0 + 517 pi_d_a1_a2_proc_0
     + 517 pi_d_a1_a3_proc_0 + 517 pi_d_a1_a4_proc_0 + 517 pi_d_a1_a7_proc_0
     + 517 pi_d_a1_a8_proc_0 + 517 pi_d_a1_a9_proc_0 + pi_y1_a1
     + pi_y2_a1_proc_0 >= 0
 c8: - pi_p_a0_a2 - pi_p_a5_a2 + pi_p_a2_a6 - pi_p_a9_a2 + pi_p_a2_a5
     - pi_d_a0_a2_proc_1 - pi_d_a0_a2_proc_0 + pi_d_a2_a0_proc_1
     + pi_d_a2_a0_proc_0 - pi_d_a1_a2_proc_0 + pi_d_a2_a1_proc_0
     + pi_d_a2_a3_proc_1 + pi_d_a2_a3_proc_0 - pi_d_a3_a2_proc_1
     - pi_d_a3_a2_proc_0 + pi_d_a2_a4_proc_1 + pi_d_a2_a4_proc_0
     - pi_d_a4_a2_proc_1 - pi_d_a4_a2_proc_0 + pi_d_a2_a5_proc_1
     - pi_d_a5_a2_proc_1 + pi_d_a2_a6_proc_1 - pi_d_a6_a2_proc_1
     + pi_d_a2_a7_proc_0 - pi_d_a7_a2_proc_0 + pi_d_a2_a8_proc_1
     + pi_d_a2_a8_proc_0 - pi_d_a8_a2_proc_1 - pi_d_a8_a2_proc_0
     + pi_d_a2_a9_proc_1 + pi_d_a2_a9_proc_0 - pi_d_a9_a2_proc_1
     - pi_d_a9_a2_proc_0 >= 0
 c9: 865 pi_p_a2_a6 + 865 pi_p_a2_a5 + 865 pi_d_a2_a0_proc_0
     + 865 pi_d_a2_a1_proc_0 + 865 pi_d_a2_a3_proc_0 + 865 pi_d_a2_a4_proc_0
     + 865 pi_d_a2_a7_proc_0 + 865 pi_d_a2_a8_proc_0 + 865 pi_d_a2_a9_proc_0
     + pi_y1_a2 + pi_y2_a2_proc_0 >= 0
 c10: 546 pi_p_a2_a6 + 546 pi_p_a2_a5 + 546 pi_d_a2_a0_proc_1
      + 546 pi_d_a2_a3_proc_1 + 546 pi_d_a2_a4_proc_1 + 546 pi_d_a2_a5_proc_1
      + 546 pi_d_a2_a6_proc_1 + 546 pi_d_a2_a8_proc_1 + 546 pi_d_a2_a9_proc_1
      + pi_y1_a2 + pi_y2_a2_proc_1 >= 0
 c11: pi_p_a3_a1 - pi_p_a4_a3 - pi_p_a5_a3 - pi_d_a0_a3_proc_1
      - pi_d_a0_a3_proc_0 + pi_d_a3_a0_proc_1 + pi_d_a3_a0_proc_0
      - pi_d_a1_a3_proc_0 + pi_d_a3_a1_proc_0 - pi_d_a2_a3_proc_1
      - pi_d_a2_a3_proc_0 + pi_d_a3_a2_proc_1 + pi_d_a3_a2_proc_0
      + pi_d_a3_a4_proc_1 + pi_d_a3_a4_proc_0 - pi_d_a4_a3_proc_1
      - pi_d_a4_a3_proc_0 + pi_d_a3_a5_proc_1 - pi_d_a5_a3_proc_1
      + pi_d_a3_a6_proc_1 - pi_d_a6_a3_proc_1 + pi_d_a3_a7_proc_0
      - pi_d_a7_a3_proc_0 + pi_d_a3_a8_proc_1 + pi_d_a3_a8_proc_0
      - pi_d_a8_a3_proc_1 - pi_d_a8_a3_proc_0 + pi_d_a3_a9_proc_1
      + pi_d_a3_a9_proc_0 - pi_d_a9_a3_proc_1 - pi_d_a9_a3_proc_0 >= 0
 c12: 1230 pi_p_a3_a1 + 1230 pi_d_a3_a0_proc_0 + 1230 pi_d_a3_a1_proc_0
      + 1230 pi_d_a3_a2_proc_0 + 1230 pi_d_a3_a4_proc_0 + 1230 pi_d_a3_a7_proc_0
      + 1230 pi_d_a3_a8_proc_0 + 1230 pi_d_a3_a9_proc_0 + pi_y1_a3
      + pi_y2_a3_proc_0 >= 0
 c13: 895 pi_p_a3_a1 + 895 pi_d_a3_a0_proc_1 + 895 pi_d_a3_a2_proc_1
      + 895 pi_d_a3_a4_proc_1 + 895 pi_d_a3_a5_proc_1 + 895 pi_d_a3_a6_proc_1
      + 895 pi_d_a3_a8_proc_1 + 895 pi_d_a3_a9_proc_1 + pi_y1_a3
      + pi_y2_a3_proc_1 >= 0
 c14: pi_p_a4_a3 + pi_p_a4_a7 + pi_p_a4_a5 - pi_d_a0_a4_proc_1
      - pi_d_a0_a4_proc_0 + pi_d_a4_a0_proc_1 + pi_d_a4_a0_proc_0
      - pi_d_a1_a4_proc_0 + pi_d_a4_a1_proc_0 - pi_d_a2_a4_proc_1
      - pi_d_a2_a4_proc_0 + pi_d_a4_a2_proc_1 + pi_d_a4_a2_proc_0
      - pi_d_a3_a4_proc_1 - pi_d_a3_a4_proc_0 + pi_d_a4_a3_proc_1
      + pi_d_a4_a3_proc_0 + pi_d_a4_a5_proc_1 - pi_d_a5_a4_proc_1
      + pi_d_a4_a6_proc_1 - pi_d_a6_a4_proc_1 + pi_d_a4_a7_proc_0
      - pi_d_a7_a4_proc_0 + pi_d_a4_a8_proc_1 + pi_d_a4_a8_proc_0
      - pi_d_a8_a4_proc_1 - pi_d_a8_a4_proc_0 + pi_d_a4_a9_proc_1
      + pi_d_a4_a9_proc_0 - pi_d_a9_a4_proc_1 - pi_d_a9_a4_proc_0 >= 0
 c15: 1023 pi_p_a4_a3 + 1023 pi_p_a4_a7 + 1023 pi_p_a4_a5
      + 1023 pi_d_a4_a0_proc_0 + 1023 pi_d_a4_a1_proc_0 + 1023 pi_d_a4_a2_proc_0
      + 1023 pi_d_a4_a3_proc_0 + 1023 pi_d_a4_a7_proc_0 + 1023 pi_d_a4_a8_proc_0
      + 1023 pi_d_a4_a9_proc_0 + pi_y1_a4 + pi_y2_a4_proc_0 >= 0
 c16: 1102 pi_p_a4_a3 + 1102 pi_p_a4_a7 + 1102 pi_p_a4_a5
      + 1102 pi_d_a4_a0_proc_1 + 1102 pi_d_a4_a2_proc_1 + 1102 pi_d_a4_a3_proc_1
      + 1102 pi_d_a4_a5_proc_1 + 1102 pi_d_a4_a6_proc_1 + 1102 pi_d_a4_a8_proc_1
      + 1102 pi_d_a4_a9_proc_1 + pi_y1_a4 + pi_y2_a4_proc_1 >= 0
 c17: pi_p_a5_a2 - pi_p_a7_a5 + pi_p_a5_a3 - pi_p_a4_a5 - pi_p_a2_a5
      - pi_d_a0_a5_proc_1 + pi_d_a5_a0_proc_1 - pi_d_a2_a5_proc_1
      + pi_d_a5_a2_proc_1 - pi_d_a3_a5_proc_1 + pi_d_a5_a3_proc_1
      - pi_d_a4_a5_proc_1 + pi_d_a5_a4_proc_1 + pi_d_a5_a6_proc_1
      - pi_d_a6_a5_proc_1 + pi_d_a5_a8_proc_1 - pi_d_a8_a5_proc_1
      + pi_d_a5_a9_proc_1 - pi_d_a9_a5_proc_1 >= 0
 c18: 966 pi_p_a5_a2 + 966 pi_p_a5_a3 + 966 pi_d_a5_a0_proc_1
      + 966 pi_d_a5_a2_proc_1 + 966 pi_d_a5_a3_proc_1 + 966 pi_d_a5_a4_proc_1
      + 966 pi_d_a5_a6_proc_1 + 966 pi_d_a5_a8_proc_1 + 966 pi_d_a5_a9_proc_1
      + pi_y1_a5 + pi_y2_a5_proc_1 >= 0
 c19: - pi_p_a2_a6 + pi_p_a6_a0 - pi_d_a0_a6_proc_1 + pi_d_a6_a0_proc_1
      - pi_d_a2_a6_proc_1 + pi_d_a6_a2_proc_1 - pi_d_a3_a6_proc_1
      + pi_d_a6_a3_proc_1 - pi_d_a4_a6_proc_1 + pi_d_a6_a4_proc_1
      - pi_d_a5_a6_proc_1 + pi_d_a6_a5_proc_1 + pi_d_a6_a8_proc_1
      - pi_d_a8_a6_proc_1 + pi_d_a6_a9_proc_1 - pi_d_a9_a6_proc_1 >= 0
 c20: 1054 pi_p_a6_a0 + 1054 pi_d_a6_a0_proc_1 + 1054 pi_d_a6_a2_proc_1
      + 1054 pi_d_a6_a3_proc_1 + 1054 pi_d_a6_a4_proc_1 + 1054 pi_d_a6_a5_proc_1
      + 1054 pi_d_a6_a8_proc_1 + 1054 pi_d_a6_a9_proc_1 + pi_y1_a6
      + pi_y2_a6_proc_1 >= 0
 c21: pi_p_a7_a5 - pi_p_a4_a7 - pi_d_a0_a7_proc_0 + pi_d_a7_a0_proc_0
      - pi_d_a1_a7_proc_0 + pi_d_a7_a1_proc_0 - pi_d_a2_a7_proc_0
      + pi_d_a7_a2_proc_0 - pi_d_a3_a7_proc_0 + pi_d_a7_a3_proc_0
      - pi_d_a4_a7_proc_0 + pi_d_a7_a4_proc_0 + pi_d_a7_a8_proc_0
      - pi_d_a8_a7_proc_0 + pi_d_a7_a9_proc_0 - pi_d_a9_a7_proc_0 >= 0
 c22: 1142 pi_p_a7_a5 + 1142 pi_d_a7_a0_proc_0 + 1142 pi_d_a7_a1_proc_0
      + 1142 pi_d_a7_a2_proc_0 + 1142 pi_d_a7_a3_proc_0 + 1142 pi_d_a7_a4_proc_0
      + 1142 pi_d_a7_a8_proc_0 + 1142 pi_d_a7_a9_proc_0 + pi_y1_a7
      + pi_y2_a7_proc_0 >= 0
 c23: - pi_p_a0_a8 + pi_p_a8_a9 - pi_d_a0_a8_proc_1 - pi_d_a0_a8_proc_0
      + pi_d_a8_a0_proc_1 + pi_d_a8_a0_proc_0 - pi_d_a1_a8_proc_0
      + pi_d_a8_a1_proc_0 - pi_d_a2_a8_proc_1 - pi_d_a2_a8_proc_0
      + pi_d_a8_a2_proc_1 + pi_d_a8_a2_proc_0 - pi_d_a3_a8_proc_1
      - pi_d_a3_a8_proc_0 + pi_d_a8_a3_proc_1 + pi_d_a8_a3_proc_0
      - pi_d_a4_a8_proc_1 - pi_d_a4_a8_proc_0 + pi_d_a8_a4_proc_1
      + pi_d_a8_a4_proc_0 - pi_d_a5_a8_proc_1 + pi_d_a8_a5_proc_1
      - pi_d_a6_a8_proc_1 + pi_d_a8_a6_proc_1 - pi_d_a7_a8_proc_0
      + pi_d_a8_a7_proc_0 + pi_d_a8_a9_proc_1 + pi_d_a8_a9_proc_0
      - pi_d_a9_a8_proc_1 - pi_d_a9_a8_proc_0 >= 0
 c24: 1087 pi_p_a8_a9 + 1087 pi_d_a8_a0_proc_0 + 1087 pi_d_a8_a1_proc_0
      + 1087 pi_d_a8_a2_proc_0 + 1087 pi_d_a8_a3_proc_0 + 1087 pi_d_a8_a4_proc_0
      + 1087 pi_d_a8_a7_proc_0 + 1087 pi_d_a8_a9_proc_0 + pi_y1_a8
      + pi_y2_a8_proc_0 >= 0
 c25: 1296 pi_p_a8_a9 + 1296 pi_d_a8_a0_proc_1 + 1296 pi_d_a8_a2_proc_1
      + 1296 pi_d_a8_a3_proc_1 + 1296 pi_d_a8_a4_proc_1 + 1296 pi_d_a8_a5_proc_1
      + 1296 pi_d_a8_a6_proc_1 + 1296 pi_d_a8_a9_proc_1 + pi_y1_a8
      + pi_y2_a8_proc_1 >= 0
 c26: pi_p_a9_a2 - pi_p_a8_a9 - pi_d_a0_a9_proc_1 - pi_d_a0_a9_proc_0
      + pi_d_a9_a0_proc_1 + pi_d_a9_a0_proc_0 - pi_d_a1_a9_proc_0
      + pi_d_a9_a1_proc_0 - pi_d_a2_a9_proc_1 - pi_d_a2_a9_proc_0
      + pi_d_a9_a2_proc_1 + pi_d_a9_a2_proc_0 - pi_d_a3_a9_proc_1
      - pi_d_a3_a9_proc_0 + pi_d_a9_a3_proc_1 + pi_d_a9_a3_proc_0
      - pi_d_a4_a9_proc_1 - pi_d_a4_a9_proc_0 + pi_d_a9_a4_proc_1
      + pi_d_a9_a4_proc_0 - pi_d_a5_a9_proc_1 + pi_d_a9_a5_proc_1
      - pi_d_a6_a9_proc_1 + pi_d_a9_a6_proc_1 - pi_d_a7_a9_proc_0
      + pi_d_a9_a7_proc_0 - pi_d_a8_a9_proc_1 - pi_d_a8_a9_proc_0
      + pi_d_a9_a8_proc_1 + pi_d_a9_a8_proc_0 >= 0
 c27: 740 pi_p_a9_a2 + 740 pi_d_a9_a0_proc_0 + 740 pi_d_a9_a1_proc_0
      + 740 pi_d_a9_a2_proc_0 + 740 pi_d_a9_a3_proc_0 + 740 pi_d_a9_a4_proc_0
      + 740 pi_d_a9_a7_proc_0 + 740 pi_d_a9_a8_proc_0 + pi_y1_a9
      + pi_y2_a9_proc_0 >= 0
 c28: 862 pi_p_a9_a2 + 862 pi_d_a9_a0_proc_1 + 862 pi_d_a9_a2_proc_1
      + 862 pi_d_a9_a3_proc_1 + 862 pi_d_a9_a4_proc_1 + 862 pi_d_a9_a5_proc_1
      + 862 pi_d_a9_a6_proc_1 + 862 pi_d_a9_a8_proc_1 + pi_y1_a9
      + pi_y2_a9_proc_1 >= 0

Bounds
       pi_y1_a0 Free
       pi_y1_a1 Free
       pi_y1_a2 Free
       pi_y1_a3 Free
       pi_y1_a4 Free
       pi_y1_a5 Free
       pi_y1_a6 Free
       pi_y1_a7 Free
       pi_y1_a8 Free
       pi_y1_a9 Free
End
