benchmark/results/graph__10-1000-0.10-02_18/graph__10-1000-0.10-02_18_QuintonOs_Benders_aux.txt
solution for: Quinton Bounded Benders_auxiliary_sub
objective: 0.265772
status: OPTIMAL_SOLUTION(2)
pi_p_a2_a6=0.000
pi_p_a5_a3=0.000
pi_p_a6_a0=0.000
pi_d_a0_a5_proc_1=0.000
pi_d_a3_a2_proc_1=0.000
pi_y1_a0=-0.243
pi_y1_a2=-0.119
pi_y1_a3=-0.196
pi_y1_a5=-0.211
pi_y1_a6=-0.230
pi_y2_a0_proc_0=0.243
pi_y2_a3_proc_0=0.196
